001 001 001 001 001 001 001 002 004 004 004 003 004 005 002 004 004 004 006 004 004 006 005 004 007 006 012 008 010 008 009
001 001 001 001 001 001 002 001 003 003 005 003 003 004 003 005 005 004 005 004 004 004 003 006 006 007 010 010 010 010 008
002 001 001 001 000 001 001 002 003 003 003 003 004 004 004 004 004 003 007 006 004 003 004 007 007 006 010 011 010 010 012
001 002 001 001 001 001 002 001 003 003 004 003 003 004 004 005 002 004 007 004 005 003 005 004 003 006 010 010 014 009 012
001 001 001 001 001 001 001 003 002 004 004 002 003 003 004 004 003 005 007 005 003 003 004 004 004 006 006 007 007 007 006
001 001 000 001 001 001 001 003 003 003 004 003 004 004 003 006 005 004 009 009 006 005 004 005 005 004 005 004 006 006 006
001 001 001 001 001 001 001 003 002 003 004 003 005 004 004 005 006 004 007 010 007 006 005 007 006 004 004 006 004 005 005
001 001 001 002 002 001 001 002 002 003 004 003 004 003 004 003 005 004 005 010 006 006 003 009 005 004 004 005 005 004 004
001 001 001 001 001 001 003 002 003 003 003 001 002 006 006 004 005 003 004 007 004 003 005 005 003 004 003 003 003 003 003
002 001 000 000 001 001 002 002 003 003 001 002 002 002 002 003 003 004 005 006 005 003 003 003 004 004 003 003 003 004 003
001 001 001 001 001 000 002 002 003 002 003 003 002 002 003 003 003 003 004 004 005 003 002 002 002 002 002 003 002 004 002
000 001 001 001 000 001 001 002 003 003 003 002 001 001 002 004 003 003 004 003 004 003 001 002 003 002 002 003 002 003 003
000 000 001 001 001 001 002 001 002 001 002 001 002 001 001 003 003 002 003 003 001 002 003 001 003 002 002 003 002 002 003
000 000 001 001 001 001 001 002 002 001 002 001 002 001 003 002 002 002 002 003 002 002 003 002 002 002 002 002 003 002 002
000 000 001 001 001 000 001 002 002 001 002 001 001 002 001 001 002 001 001 001 002 002 003 003 001 002 002 001 003 002 003
000 001 001 001 001 000 001 001 001 001 001 002 001 002 001 001 001 001 001 001 001 002 002 003 001 001 001 001 002 002 002
000 000 000 001 001 001 000 001 001 000 001 002 002 001 000 001 001 000 001 000 001 001 001 001 001 001 001 001 001 002 001
000 000 001 001 002 001 001 001 000 001 001 001 001 000 000 001 001 001 001 000 001 001 001 002 002 001 000 001 001 001 001
000 000 000 001 001 000 001 001 000 000 000 000 000 000 000 000 001 001 001 001 001 001 001 001 002 002 002 001 001 001 002
000 000 000 000 000 000 000 000 000 000 000 000 000 000 000 000 001 001 001 001 001 001 002 002 004 002 003 003 003 -99 -99
000 000 000 000 000 000 000 000 000 000 000 000 000 000 000 000 001 002 001 002 002 002 003 003 005 003 003 003 003 -99 -99
000 000 000 000 000 000 000 000 000 000 000 000 000 000 000 000 001 002 002 002 002 003 003 003 005 003 003 003 003 -99 -99
000 000 000 000 000 000 000 000 000 000 000 000 000 000 000 000 001 002 002 002 002 004 003 003 004 003 003 006 003 -99 010
000 000 000 001 000 000 000 000 000 000 000 000 000 000 000 000 002 002 001 002 003 003 003 003 004 004 -99 006 -99 015 011
000 000 000 002 000 000 000 000 000 000 000 000 000 000 000 000 002 002 001 003 003 002 002 -99 004 004 -99 -99 -99 015 012
000 000 000 000 000 000 000 000 000 000 000 000 000 000 000 000 001 002 001 002 004 002 002 -99 -99 -99 -99 -99 008 021 024
000 000 000 000 000 000 000 000 000 000 000 000 000 000 000 000 000 001 001 001 001 001 002 -99 -99 -99 -99 -99 006 014 024
000 000 000 000 000 000 000 000 000 000 000 000 000 000 000 000 000 001 001 001 001 002 003 002 002 -99 004 004 006 010 018
000 000 000 000 000 000 000 000 000 000 000 000 000 000 000 000 000 001 001 001 002 004 001 001 -99 -99 003 005 006 009 010
000 000 000 000 000 000 000 000 000 000 000 000 000 000 000 000 000 000 001 001 002 001 001 001 001 002 002 005 006 010 007
000 000 000 000 000 000 000 000 000 000 000 000 000 000 000 000 000 000 000 001 002 001 000 000 000 001 002 005 006 013 010
000 000 000 000 000 000 000 000 000 000 000 000 000 000 000 000 000 000 000 000 000 000 000 000 000 001 001 003 006 016 011
000 000 000 000 000 000 000 000 000 000 000 000 000 000 000 000 000 000 000 000 000 000 000 000 000 001 001 002 009 015 010
000 000 000 000 000 000 000 000 000 000 000 000 000 000 000 000 000 000 000 000 -99 000 000 000 000 001 001 001 004 009 007
000 000 000 000 000 000 000 000 000 000 000 000 000 000 000 000 000 000 -99 000 000 000 000 000 000 000 000 000 001 005 006
000 000 000 000 000 000 000 000 000 000 000 000 000 000 000 000 000 000 000 000 000 000 000 000 000 000 000 000 001 004 004
000 000 000 000 000 000 000 000 000 000 000 000 000 000 000 000 000 000 000 000 000 000 000 000 000 000 000 000 000 001 002
000 -99 000 000 000 000 000 000 000 000 -99 000 000 000 000 000 000 000 000 000 000 000 000 000 000 000 000 000 000 001 001
000 -99 000 000 000 -99 -99 000 -99 000 -99 -99 000 000 000 000 000 000 000 000 000 000 000 000 000 000 000 000 000 000 000
000 000 000 000 000 -99 -99 000 -99 -99 -99 000 000 000 000 000 001 000 000 000 000 000 000 000 000 000 000 000 000 000 000
000 000 000 000 000 -99 -99 -99 -99 -99 000 000 000 000 000 000 001 001 000 000 000 000 000 000 000 000 000 000 000 000 000
000 000 -99 000 000 000 -99 000 -99 -99 000 000 000 000 000 000 001 001 000 000 000 000 000 000 000 000 000 000 000 000 000
000 000 -99 -99 -99 000 000 000 000 000 000 000 000 000 000 000 001 000 000 000 000 000 000 000 000 000 000 000 000 000 000
000 -99 -99 -99 -99 000 -99 -99 -99 -99 -99 000 000 000 000 000 000 000 000 000 000 000 000 000 000 000 000 000 000 -99 -99
-99 -99 -99 -99 -99 -99 -99 -99 -99 -99 000 000 000 000 000 000 000 000 000 000 -99 000 000 000 000 -99 000 000 000 -99 -99
-99 -99 -99 -99 -99 -99 -99 -99 -99 -99 000 000 000 000 000 -99 000 000 000 000 000 000 -99 000 000 -99 000 000 -99 -99 000
-99 -99 -99 -99 -99 -99 -99 -99 -99 -99 000 000 000 000 -99 -99 -99 000 000 -99 000 000 000 -99 -99 -99 000 000 -99 -99 -99
-99 -99 -99 -99 -99 -99 -99 -99 -99 -99 -99 000 000 -99 -99 -99 -99 000 000 -99 000 000 000 000 000 -99 000 000 000 -99 -99
-99 -99 -99 -99 -99 -99 -99 -99 -99 -99 -99 000 000 -99 -99 -99 -99 000 -99 000 000 000 000 000 -99 000 000 000 000 -99 -99
-99 -99 -99 -99 -99 -99 -99 -99 -99 -99 -99 -99 -99 -99 -99 -99 -99 000 000 000 000 000 -99 000 -99 000 000 000 000 -99 -99
-99 -99 -99 -99 -99 -99 -99 -99 -99 -99 -99 -99 -99 -99 -99 -99 -99 -99 -99 000 000 -99 -99 -99 -99 -99 000 000 000 -99 -99
-99 -99 -99 -99 -99 -99 -99 -99 -99 -99 -99 -99 -99 -99 -99 -99 -99 000 000 000 000 -99 -99 -99 -99 -99 -99 -99 -99 -99 -99
-99 -99 -99 -99 -99 -99 -99 -99 -99 -99 -99 -99 -99 -99 -99 -99 -99 -99 -99 -99 000 -99 -99 -99 -99 -99 -99 -99 -99 -99 -99
-99 -99 -99 -99 -99 -99 -99 -99 -99 -99 -99 -99 -99 -99 -99 -99 000 000 -99 -99 -99 -99 -99 -99 -99 -99 -99 -99 -99 -99 -99
-99 -99 -99 -99 -99 -99 -99 -99 -99 -99 -99 -99 -99 -99 -99 -99 -99 000 -99 -99 -99 -99 -99 -99 -99 -99 -99 -99 -99 -99 -99
